50, 531
14, 14
46, 46
8, 8
20, 20
26, 26
28, 28
28, 28
32, 32
42, 42
4, 4
22, 22
18, 18
30, 30
36, 36
14, 14
26, 26
50, 50
12, 12
10, 10
18, 18
14, 14
10, 10
10, 10
4, 4
18, 18
14, 14
48, 48
28, 28
36, 36
6, 6
22, 22
48, 48
10, 10
20, 20
8, 8
16, 16
12, 12
24, 24
26, 26
2, 2
6, 6
24, 24
6, 6
22, 22
2, 2
40, 40
16, 16
10, 10
30, 30
46, 46
